db/inputs/817618689344277891554626720883727807.smt2
(set-logic QF_FP)
(declare-const x0 (_ FloatingPoint 8 24))
(declare-const x1 (_ FloatingPoint 8 24))
(declare-const x2 (_ FloatingPoint 8 24))
(declare-const x3 (_ FloatingPoint 8 24))
(declare-const x4 (_ FloatingPoint 8 24))
(declare-const x5 (_ FloatingPoint 8 24))
(declare-const x6 (_ FloatingPoint 8 24))
(declare-const x7 (_ FloatingPoint 8 24))
(declare-const x8 (_ FloatingPoint 8 24))
(declare-const x9 (_ FloatingPoint 8 24))
(declare-const x10 (_ FloatingPoint 8 24))
(declare-const x11 (_ FloatingPoint 8 24))
(declare-const x12 (_ FloatingPoint 8 24))
(declare-const x13 (_ FloatingPoint 8 24))
(declare-const x14 (_ FloatingPoint 8 24))
(declare-const x15 (_ FloatingPoint 8 24))
(assert (fp.eq (fp.mul RNE (fp.mul RNE (fp.sub RNE (fp.mul RNE x0 x3) (fp.div RNE x13 x8)) (fp.mul RNE (fp.sub RNE x9 x1) (fp.sub RNE x13 x1))) (fp.add RNE (fp.add RNE (fp.div RNE x6 x12) (fp.sub RNE x15 x6)) (fp.sub RNE (fp.mul RNE x4 x14) (fp.mul RNE x10 x14)))) (fp.sub RNE (fp.add RNE (fp.add RNE (fp.mul RNE x8 x12) (fp.div RNE x14 x11)) (fp.add RNE (fp.sub RNE x15 x3) (fp.add RNE x0 x0))) (fp.sub RNE (fp.sub RNE (fp.div RNE x9 x5) (fp.div RNE x3 x4)) (fp.sub RNE (fp.sub RNE x12 x4) (fp.add RNE x1 x4))))))
(assert (fp.lt (fp.add RNE (fp.sub RNE (fp.add RNE (fp.add RNE x11 x5) (fp.sub RNE x3 x12)) (fp.add RNE (fp.mul RNE x10 x14) (fp.sub RNE x9 x5))) (fp.sub RNE (fp.div RNE (fp.mul RNE x5 x9) (fp.sub RNE x1 x1)) (fp.mul RNE (fp.add RNE x5 x3) (fp.neg x15)))) (fp.mul RNE (fp.sub RNE (fp.div RNE (fp.mul RNE x6 x6) (fp.mul RNE x5 x2)) (fp.mul RNE (fp.sub RNE x0 x1) (fp.mul RNE x0 x6))) (fp.neg (fp.add RNE (fp.add RNE x11 x3) (fp.div RNE x13 x12))))))
(check-sat)
