db/data/817618689344277891554626720883727807.z3.out
sat
-------------------
1241.431262971
